Traveling Salesman Problem/TSP_generados/Aleatorio1621103304_9.tsp
NAME: Aleatorio1621103304_9.tsp
COMMENT: Randomly generated scenario
TYPE: TSP
DIMENSION: 9
EDGE_WEIGHT_TYPE: ATT
NODE_COORD_SECTION
1 46.77 3.14
2 20.79 37.05
3 36.21 8.99
4 14.9 33.65
5 43.15 49.11
6 49.27 12.12
7 25.49 46.71
8 24.3 36.17
9 2.07 44.75
