Traveling Salesman Problem/TSP_generados/Aleatorio1621103304_9.opt.tour
NAME: Aleatorio1621103304_9.opt.tour
COMMENT: Optimal solution for Aleatorio1621103304_9 (157.27035052163131)
TYPE: TOUR
DIMENSION: 9
TOUR_SECTION
1 3 8 2 4 9 7 5 6
-1
EOF
